1925345
0,93,27,54,61,129,191,67,165,115,228,132,182,21,116,103,32,152,216,223,227,185,170,89,108,87,128,145,186,102,179,42,158,176,159,72,28,9,194,197,199,64,163,16,213,47,133,119,184,2,29,14,13,92,167,229,220,148,51,138,198,177,146,22,41,97,94,83,78,56,166,123,131,75,122,24,55,53,52,189,40,114,203,10,118,6,35,86,111,154,168,195,106,178,204,26,34,39,80,101,214,183,209,62,31,82,73,70,71,48,139,38,156,161,162,125,180,173,112,172,187,181,17,174,91,99,215,201,104,98,218,105,11,141,20,3,169,149,37,1,157,120,76,81,142,212,171,5,25,150,107,49,77,160,144,33,19,137,59,210,43,155,143,164,190,192,153,109,96,222,175,207,135,193,7,45,226,124,58,57,211,221,140,127,23,65,66,30,151,4,15,188,136,224,12,46,18,110,100,95,90,88,74,36,8,202,44,79,196,130,147,60,84,85,69,219,63,200,121,68,50,113,217,205,208,225,126,206,134,117,0